<number of tasks>
75

<cycle time>
36

<task times>
1 23
2 24
3 25
4 26
5 23
6 22
7 6
8 22
9 23
10 21
11 22
12 15
13 5
14 23
15 4
16 26
17 21
18 5
19 24
20 25
21 26
22 26
23 24
24 27
25 20
26 23
27 25
28 13
29 3
30 11
31 21
32 22
33 21
34 22
35 25
36 8
37 22
38 24
39 22
40 21
41 6
42 26
43 22
44 6
45 21
46 25
47 11
48 22
49 21
50 25
51 22
52 22
53 23
54 22
55 22
56 25
57 23
58 21
59 22
60 22
61 22
62 22
63 21
64 27
65 23
66 2
67 26
68 25
69 24
70 22
71 24
72 4
73 22
74 10
75 25

<task process alternatives>
1: 19,15 ; 28,8
2: 20,15 ; 29,8
3: 20,15 ; 30,8
4: 21,15 ; 32,8
5: 19,15 ; 28,8
6: 18,15 ; 27,8
7: 5,15 ; 8,8
8: 18,15 ; 27,8
9: 19,15 ; 28,8
10: 17,15 ; 26,8
11: 18,15 ; 27,8
12: 12,15 ; 18,8
13: 4,15 ; 6,8
14: 19,15 ; 28,8
15: 4,15 ; 5,8
16: 21,15 ; 32,8
17: 17,15 ; 26,8
18: 4,15 ; 6,8
19: 20,15 ; 29,8
20: 20,15 ; 30,8
21: 21,15 ; 32,8
22: 21,15 ; 32,8
23: 20,15 ; 29,8
24: 22,15 ; 33,8
25: 16,15 ; 24,8
26: 19,15 ; 28,8
27: 20,15 ; 30,8
28: 11,15 ; 16,8
29: 3,15 ; 4,8
30: 9,15 ; 14,8
31: 17,15 ; 26,8
32: 18,15 ; 27,8
33: 17,15 ; 26,8
34: 18,15 ; 27,8
35: 20,15 ; 30,8
36: 7,15 ; 10,8
37: 18,15 ; 27,8
38: 20,15 ; 29,8
39: 18,15 ; 27,8
40: 17,15 ; 26,8
41: 5,15 ; 8,8
42: 21,15 ; 32,8
43: 18,15 ; 27,8
44: 5,15 ; 8,8
45: 17,15 ; 26,8
46: 20,15 ; 30,8
47: 9,15 ; 14,8
48: 18,15 ; 27,8
49: 17,15 ; 26,8
50: 20,15 ; 30,8
51: 18,15 ; 27,8
52: 18,15 ; 27,8
53: 19,15 ; 28,8
54: 18,15 ; 27,8
55: 18,15 ; 27,8
56: 20,15 ; 30,8
57: 19,15 ; 28,8
58: 17,15 ; 26,8
59: 18,15 ; 27,8
60: 18,15 ; 27,8
61: 18,15 ; 27,8
62: 18,15 ; 27,8
63: 17,15 ; 26,8
64: 22,15 ; 33,8
65: 19,15 ; 28,8
66: 2,15 ; 3,8
67: 21,15 ; 32,8
68: 20,15 ; 30,8
69: 20,15 ; 29,8
70: 18,15 ; 27,8
71: 20,15 ; 29,8
72: 4,15 ; 5,8
73: 18,15 ; 27,8
74: 8,15 ; 12,8
75: 20,15 ; 30,8

<incompatible tasks>
5,17
60,8
32,19
7,32
16,57
52,11
28,4
41,35
44,7
38,10
72,14

<precedence relations>
47,53
58,65
18,26
35,42
59,64
3,13
46,48
39,51
17,30
49,62
68,75
6,11
15,23
50,54
26,32
25,34
59,66
5,12
3,24
27,36
6,13
62,67
18,30
68,70
27,29
47,50
55,63
16,26
49,59
1,3
68,72
36,43
47,52
42,47
43,48
26,41
31,37
66,68
49,61
1,5
24,25
16,21
25,33
43,50
31,39
1,7
27,35
2,15
12,19
46,51
36,40
47,49
25,28
15,20
32,45
4,8
50,60
52,57
21,33
1,2
53,58
68,74
6,10
26,31
50,62
1,4
50,55
1,6
10,18
9,20
68,69
15,17
33,41
35,38
4,14
5,15
40,46
68,71
13,22
25,30
32,44
52,56
4,16
20,27
9,24
68,73
6,9

<optimal SALBP-1 value>
60

<rand seed>
236278236

<end>
